NAME: line_37_57
TYPE: TSP
COMMENT: srandom_37_57
DIMENSION: 37
EDGE_WEIGHT_TYPE: EUC_2D
NODE_COORD_SECTION
1 489 145
2 4893 2950
3 201 2833
4 3048 2174
5 3095 4121
6 2179 247
7 3769 3276
8 321 2049
9 3873 1133
10 1746 641
11 1844 3693
12 1692 734
13 836 2859
14 3300 4735
15 3620 1362
16 649 3342
17 3106 4623
18 4514 3539
19 3627 89
20 4461 2454
21 4866 2132
22 415 2262
23 2334 4351
24 2448 2528
25 2475 2519
26 481 1784
27 362 2264
28 4827 3820
29 1065 3217
30 1357 3297
31 617 4106
32 4598 1475
33 2458 1640
34 3935 4813
35 59 231
36 428 612
37 3522 3666
